50
154
148
234
209
269
192
274
156
209
169
160
288
162
287
161
168
261
207
285
282
175
136
189
232
218
285
225
254
130
204
203
130
204
188
258
209
190
136
165
181
284
163
185
151
234
254
218
275
162
282
